p cnf 84 3612
1 2 3 5 11 14 74 0
-1 -2 0
-1 -3 0
-1 -5 0
-1 -11 0
-1 -14 0
-1 -74 0
-2 -1 0
-2 -3 0
-2 -5 0
-2 -11 0
-2 -14 0
-2 -74 0
-3 -1 0
-3 -2 0
-3 -5 0
-3 -11 0
-3 -14 0
-3 -74 0
-5 -1 0
-5 -2 0
-5 -3 0
-5 -11 0
-5 -14 0
-5 -74 0
-11 -1 0
-11 -2 0
-11 -3 0
-11 -5 0
-11 -14 0
-11 -74 0
-14 -1 0
-14 -2 0
-14 -3 0
-14 -5 0
-14 -11 0
-14 -74 0
-74 -1 0
-74 -2 0
-74 -3 0
-74 -5 0
-74 -11 0
-74 -14 0
1 4 5 6 7 16 76 0
-1 -4 0
-1 -5 0
-1 -6 0
-1 -7 0
-1 -16 0
-1 -76 0
-4 -1 0
-4 -5 0
-4 -6 0
-4 -7 0
-4 -16 0
-4 -76 0
-5 -1 0
-5 -4 0
-5 -6 0
-5 -7 0
-5 -16 0
-5 -76 0
-6 -1 0
-6 -4 0
-6 -5 0
-6 -7 0
-6 -16 0
-6 -76 0
-7 -1 0
-7 -4 0
-7 -5 0
-7 -6 0
-7 -16 0
-7 -76 0
-16 -1 0
-16 -4 0
-16 -5 0
-16 -6 0
-16 -7 0
-16 -76 0
-76 -1 0
-76 -4 0
-76 -5 0
-76 -6 0
-76 -7 0
-76 -16 0
1 61 73 74 75 76 82 0
-1 -61 0
-1 -73 0
-1 -74 0
-1 -75 0
-1 -76 0
-1 -82 0
-61 -1 0
-61 -73 0
-61 -74 0
-61 -75 0
-61 -76 0
-61 -82 0
-73 -1 0
-73 -61 0
-73 -74 0
-73 -75 0
-73 -76 0
-73 -82 0
-74 -1 0
-74 -61 0
-74 -73 0
-74 -75 0
-74 -76 0
-74 -82 0
-75 -1 0
-75 -61 0
-75 -73 0
-75 -74 0
-75 -76 0
-75 -82 0
-76 -1 0
-76 -61 0
-76 -73 0
-76 -74 0
-76 -75 0
-76 -82 0
-82 -1 0
-82 -61 0
-82 -73 0
-82 -74 0
-82 -75 0
-82 -76 0
1 2 3 4 10 13 73 0
-1 -2 0
-1 -3 0
-1 -4 0
-1 -10 0
-1 -13 0
-1 -73 0
-2 -1 0
-2 -3 0
-2 -4 0
-2 -10 0
-2 -13 0
-2 -73 0
-3 -1 0
-3 -2 0
-3 -4 0
-3 -10 0
-3 -13 0
-3 -73 0
-4 -1 0
-4 -2 0
-4 -3 0
-4 -10 0
-4 -13 0
-4 -73 0
-10 -1 0
-10 -2 0
-10 -3 0
-10 -4 0
-10 -13 0
-10 -73 0
-13 -1 0
-13 -2 0
-13 -3 0
-13 -4 0
-13 -10 0
-13 -73 0
-73 -1 0
-73 -2 0
-73 -3 0
-73 -4 0
-73 -10 0
-73 -13 0
1 13 14 15 16 22 25 0
-1 -13 0
-1 -14 0
-1 -15 0
-1 -16 0
-1 -22 0
-1 -25 0
-13 -1 0
-13 -14 0
-13 -15 0
-13 -16 0
-13 -22 0
-13 -25 0
-14 -1 0
-14 -13 0
-14 -15 0
-14 -16 0
-14 -22 0
-14 -25 0
-15 -1 0
-15 -13 0
-15 -14 0
-15 -16 0
-15 -22 0
-15 -25 0
-16 -1 0
-16 -13 0
-16 -14 0
-16 -15 0
-16 -22 0
-16 -25 0
-22 -1 0
-22 -13 0
-22 -14 0
-22 -15 0
-22 -16 0
-22 -25 0
-25 -1 0
-25 -13 0
-25 -14 0
-25 -15 0
-25 -16 0
-25 -22 0
1 7 10 11 12 22 82 0
-1 -7 0
-1 -10 0
-1 -11 0
-1 -12 0
-1 -22 0
-1 -82 0
-7 -1 0
-7 -10 0
-7 -11 0
-7 -12 0
-7 -22 0
-7 -82 0
-10 -1 0
-10 -7 0
-10 -11 0
-10 -12 0
-10 -22 0
-10 -82 0
-11 -1 0
-11 -7 0
-11 -10 0
-11 -12 0
-11 -22 0
-11 -82 0
-12 -1 0
-12 -7 0
-12 -10 0
-12 -11 0
-12 -22 0
-12 -82 0
-22 -1 0
-22 -7 0
-22 -10 0
-22 -11 0
-22 -12 0
-22 -82 0
-82 -1 0
-82 -7 0
-82 -10 0
-82 -11 0
-82 -12 0
-82 -22 0
1 2 3 6 12 15 75 0
-1 -2 0
-1 -3 0
-1 -6 0
-1 -12 0
-1 -15 0
-1 -75 0
-2 -1 0
-2 -3 0
-2 -6 0
-2 -12 0
-2 -15 0
-2 -75 0
-3 -1 0
-3 -2 0
-3 -6 0
-3 -12 0
-3 -15 0
-3 -75 0
-6 -1 0
-6 -2 0
-6 -3 0
-6 -12 0
-6 -15 0
-6 -75 0
-12 -1 0
-12 -2 0
-12 -3 0
-12 -6 0
-12 -15 0
-12 -75 0
-15 -1 0
-15 -2 0
-15 -3 0
-15 -6 0
-15 -12 0
-15 -75 0
-75 -1 0
-75 -2 0
-75 -3 0
-75 -6 0
-75 -12 0
-75 -15 0
2 4 5 6 8 17 77 0
-2 -4 0
-2 -5 0
-2 -6 0
-2 -8 0
-2 -17 0
-2 -77 0
-4 -2 0
-4 -5 0
-4 -6 0
-4 -8 0
-4 -17 0
-4 -77 0
-5 -2 0
-5 -4 0
-5 -6 0
-5 -8 0
-5 -17 0
-5 -77 0
-6 -2 0
-6 -4 0
-6 -5 0
-6 -8 0
-6 -17 0
-6 -77 0
-8 -2 0
-8 -4 0
-8 -5 0
-8 -6 0
-8 -17 0
-8 -77 0
-17 -2 0
-17 -4 0
-17 -5 0
-17 -6 0
-17 -8 0
-17 -77 0
-77 -2 0
-77 -4 0
-77 -5 0
-77 -6 0
-77 -8 0
-77 -17 0
2 62 73 74 75 77 83 0
-2 -62 0
-2 -73 0
-2 -74 0
-2 -75 0
-2 -77 0
-2 -83 0
-62 -2 0
-62 -73 0
-62 -74 0
-62 -75 0
-62 -77 0
-62 -83 0
-73 -2 0
-73 -62 0
-73 -74 0
-73 -75 0
-73 -77 0
-73 -83 0
-74 -2 0
-74 -62 0
-74 -73 0
-74 -75 0
-74 -77 0
-74 -83 0
-75 -2 0
-75 -62 0
-75 -73 0
-75 -74 0
-75 -77 0
-75 -83 0
-77 -2 0
-77 -62 0
-77 -73 0
-77 -74 0
-77 -75 0
-77 -83 0
-83 -2 0
-83 -62 0
-83 -73 0
-83 -74 0
-83 -75 0
-83 -77 0
2 13 14 15 17 23 26 0
-2 -13 0
-2 -14 0
-2 -15 0
-2 -17 0
-2 -23 0
-2 -26 0
-13 -2 0
-13 -14 0
-13 -15 0
-13 -17 0
-13 -23 0
-13 -26 0
-14 -2 0
-14 -13 0
-14 -15 0
-14 -17 0
-14 -23 0
-14 -26 0
-15 -2 0
-15 -13 0
-15 -14 0
-15 -17 0
-15 -23 0
-15 -26 0
-17 -2 0
-17 -13 0
-17 -14 0
-17 -15 0
-17 -23 0
-17 -26 0
-23 -2 0
-23 -13 0
-23 -14 0
-23 -15 0
-23 -17 0
-23 -26 0
-26 -2 0
-26 -13 0
-26 -14 0
-26 -15 0
-26 -17 0
-26 -23 0
2 8 10 11 12 23 83 0
-2 -8 0
-2 -10 0
-2 -11 0
-2 -12 0
-2 -23 0
-2 -83 0
-8 -2 0
-8 -10 0
-8 -11 0
-8 -12 0
-8 -23 0
-8 -83 0
-10 -2 0
-10 -8 0
-10 -11 0
-10 -12 0
-10 -23 0
-10 -83 0
-11 -2 0
-11 -8 0
-11 -10 0
-11 -12 0
-11 -23 0
-11 -83 0
-12 -2 0
-12 -8 0
-12 -10 0
-12 -11 0
-12 -23 0
-12 -83 0
-23 -2 0
-23 -8 0
-23 -10 0
-23 -11 0
-23 -12 0
-23 -83 0
-83 -2 0
-83 -8 0
-83 -10 0
-83 -11 0
-83 -12 0
-83 -23 0
3 4 5 6 9 18 78 0
-3 -4 0
-3 -5 0
-3 -6 0
-3 -9 0
-3 -18 0
-3 -78 0
-4 -3 0
-4 -5 0
-4 -6 0
-4 -9 0
-4 -18 0
-4 -78 0
-5 -3 0
-5 -4 0
-5 -6 0
-5 -9 0
-5 -18 0
-5 -78 0
-6 -3 0
-6 -4 0
-6 -5 0
-6 -9 0
-6 -18 0
-6 -78 0
-9 -3 0
-9 -4 0
-9 -5 0
-9 -6 0
-9 -18 0
-9 -78 0
-18 -3 0
-18 -4 0
-18 -5 0
-18 -6 0
-18 -9 0
-18 -78 0
-78 -3 0
-78 -4 0
-78 -5 0
-78 -6 0
-78 -9 0
-78 -18 0
3 63 73 74 75 78 84 0
-3 -63 0
-3 -73 0
-3 -74 0
-3 -75 0
-3 -78 0
-3 -84 0
-63 -3 0
-63 -73 0
-63 -74 0
-63 -75 0
-63 -78 0
-63 -84 0
-73 -3 0
-73 -63 0
-73 -74 0
-73 -75 0
-73 -78 0
-73 -84 0
-74 -3 0
-74 -63 0
-74 -73 0
-74 -75 0
-74 -78 0
-74 -84 0
-75 -3 0
-75 -63 0
-75 -73 0
-75 -74 0
-75 -78 0
-75 -84 0
-78 -3 0
-78 -63 0
-78 -73 0
-78 -74 0
-78 -75 0
-78 -84 0
-84 -3 0
-84 -63 0
-84 -73 0
-84 -74 0
-84 -75 0
-84 -78 0
3 13 14 15 18 24 27 0
-3 -13 0
-3 -14 0
-3 -15 0
-3 -18 0
-3 -24 0
-3 -27 0
-13 -3 0
-13 -14 0
-13 -15 0
-13 -18 0
-13 -24 0
-13 -27 0
-14 -3 0
-14 -13 0
-14 -15 0
-14 -18 0
-14 -24 0
-14 -27 0
-15 -3 0
-15 -13 0
-15 -14 0
-15 -18 0
-15 -24 0
-15 -27 0
-18 -3 0
-18 -13 0
-18 -14 0
-18 -15 0
-18 -24 0
-18 -27 0
-24 -3 0
-24 -13 0
-24 -14 0
-24 -15 0
-24 -18 0
-24 -27 0
-27 -3 0
-27 -13 0
-27 -14 0
-27 -15 0
-27 -18 0
-27 -24 0
3 9 10 11 12 24 84 0
-3 -9 0
-3 -10 0
-3 -11 0
-3 -12 0
-3 -24 0
-3 -84 0
-9 -3 0
-9 -10 0
-9 -11 0
-9 -12 0
-9 -24 0
-9 -84 0
-10 -3 0
-10 -9 0
-10 -11 0
-10 -12 0
-10 -24 0
-10 -84 0
-11 -3 0
-11 -9 0
-11 -10 0
-11 -12 0
-11 -24 0
-11 -84 0
-12 -3 0
-12 -9 0
-12 -10 0
-12 -11 0
-12 -24 0
-12 -84 0
-24 -3 0
-24 -9 0
-24 -10 0
-24 -11 0
-24 -12 0
-24 -84 0
-84 -3 0
-84 -9 0
-84 -10 0
-84 -11 0
-84 -12 0
-84 -24 0
4 7 8 9 10 19 79 0
-4 -7 0
-4 -8 0
-4 -9 0
-4 -10 0
-4 -19 0
-4 -79 0
-7 -4 0
-7 -8 0
-7 -9 0
-7 -10 0
-7 -19 0
-7 -79 0
-8 -4 0
-8 -7 0
-8 -9 0
-8 -10 0
-8 -19 0
-8 -79 0
-9 -4 0
-9 -7 0
-9 -8 0
-9 -10 0
-9 -19 0
-9 -79 0
-10 -4 0
-10 -7 0
-10 -8 0
-10 -9 0
-10 -19 0
-10 -79 0
-19 -4 0
-19 -7 0
-19 -8 0
-19 -9 0
-19 -10 0
-19 -79 0
-79 -4 0
-79 -7 0
-79 -8 0
-79 -9 0
-79 -10 0
-79 -19 0
4 64 73 76 77 78 79 0
-4 -64 0
-4 -73 0
-4 -76 0
-4 -77 0
-4 -78 0
-4 -79 0
-64 -4 0
-64 -73 0
-64 -76 0
-64 -77 0
-64 -78 0
-64 -79 0
-73 -4 0
-73 -64 0
-73 -76 0
-73 -77 0
-73 -78 0
-73 -79 0
-76 -4 0
-76 -64 0
-76 -73 0
-76 -77 0
-76 -78 0
-76 -79 0
-77 -4 0
-77 -64 0
-77 -73 0
-77 -76 0
-77 -78 0
-77 -79 0
-78 -4 0
-78 -64 0
-78 -73 0
-78 -76 0
-78 -77 0
-78 -79 0
-79 -4 0
-79 -64 0
-79 -73 0
-79 -76 0
-79 -77 0
-79 -78 0
4 13 16 17 18 19 28 0
-4 -13 0
-4 -16 0
-4 -17 0
-4 -18 0
-4 -19 0
-4 -28 0
-13 -4 0
-13 -16 0
-13 -17 0
-13 -18 0
-13 -19 0
-13 -28 0
-16 -4 0
-16 -13 0
-16 -17 0
-16 -18 0
-16 -19 0
-16 -28 0
-17 -4 0
-17 -13 0
-17 -16 0
-17 -18 0
-17 -19 0
-17 -28 0
-18 -4 0
-18 -13 0
-18 -16 0
-18 -17 0
-18 -19 0
-18 -28 0
-19 -4 0
-19 -13 0
-19 -16 0
-19 -17 0
-19 -18 0
-19 -28 0
-28 -4 0
-28 -13 0
-28 -16 0
-28 -17 0
-28 -18 0
-28 -19 0
5 7 8 9 11 20 80 0
-5 -7 0
-5 -8 0
-5 -9 0
-5 -11 0
-5 -20 0
-5 -80 0
-7 -5 0
-7 -8 0
-7 -9 0
-7 -11 0
-7 -20 0
-7 -80 0
-8 -5 0
-8 -7 0
-8 -9 0
-8 -11 0
-8 -20 0
-8 -80 0
-9 -5 0
-9 -7 0
-9 -8 0
-9 -11 0
-9 -20 0
-9 -80 0
-11 -5 0
-11 -7 0
-11 -8 0
-11 -9 0
-11 -20 0
-11 -80 0
-20 -5 0
-20 -7 0
-20 -8 0
-20 -9 0
-20 -11 0
-20 -80 0
-80 -5 0
-80 -7 0
-80 -8 0
-80 -9 0
-80 -11 0
-80 -20 0
5 65 74 76 77 78 80 0
-5 -65 0
-5 -74 0
-5 -76 0
-5 -77 0
-5 -78 0
-5 -80 0
-65 -5 0
-65 -74 0
-65 -76 0
-65 -77 0
-65 -78 0
-65 -80 0
-74 -5 0
-74 -65 0
-74 -76 0
-74 -77 0
-74 -78 0
-74 -80 0
-76 -5 0
-76 -65 0
-76 -74 0
-76 -77 0
-76 -78 0
-76 -80 0
-77 -5 0
-77 -65 0
-77 -74 0
-77 -76 0
-77 -78 0
-77 -80 0
-78 -5 0
-78 -65 0
-78 -74 0
-78 -76 0
-78 -77 0
-78 -80 0
-80 -5 0
-80 -65 0
-80 -74 0
-80 -76 0
-80 -77 0
-80 -78 0
5 14 16 17 18 20 29 0
-5 -14 0
-5 -16 0
-5 -17 0
-5 -18 0
-5 -20 0
-5 -29 0
-14 -5 0
-14 -16 0
-14 -17 0
-14 -18 0
-14 -20 0
-14 -29 0
-16 -5 0
-16 -14 0
-16 -17 0
-16 -18 0
-16 -20 0
-16 -29 0
-17 -5 0
-17 -14 0
-17 -16 0
-17 -18 0
-17 -20 0
-17 -29 0
-18 -5 0
-18 -14 0
-18 -16 0
-18 -17 0
-18 -20 0
-18 -29 0
-20 -5 0
-20 -14 0
-20 -16 0
-20 -17 0
-20 -18 0
-20 -29 0
-29 -5 0
-29 -14 0
-29 -16 0
-29 -17 0
-29 -18 0
-29 -20 0
6 7 8 9 12 21 81 0
-6 -7 0
-6 -8 0
-6 -9 0
-6 -12 0
-6 -21 0
-6 -81 0
-7 -6 0
-7 -8 0
-7 -9 0
-7 -12 0
-7 -21 0
-7 -81 0
-8 -6 0
-8 -7 0
-8 -9 0
-8 -12 0
-8 -21 0
-8 -81 0
-9 -6 0
-9 -7 0
-9 -8 0
-9 -12 0
-9 -21 0
-9 -81 0
-12 -6 0
-12 -7 0
-12 -8 0
-12 -9 0
-12 -21 0
-12 -81 0
-21 -6 0
-21 -7 0
-21 -8 0
-21 -9 0
-21 -12 0
-21 -81 0
-81 -6 0
-81 -7 0
-81 -8 0
-81 -9 0
-81 -12 0
-81 -21 0
6 66 75 76 77 78 81 0
-6 -66 0
-6 -75 0
-6 -76 0
-6 -77 0
-6 -78 0
-6 -81 0
-66 -6 0
-66 -75 0
-66 -76 0
-66 -77 0
-66 -78 0
-66 -81 0
-75 -6 0
-75 -66 0
-75 -76 0
-75 -77 0
-75 -78 0
-75 -81 0
-76 -6 0
-76 -66 0
-76 -75 0
-76 -77 0
-76 -78 0
-76 -81 0
-77 -6 0
-77 -66 0
-77 -75 0
-77 -76 0
-77 -78 0
-77 -81 0
-78 -6 0
-78 -66 0
-78 -75 0
-78 -76 0
-78 -77 0
-78 -81 0
-81 -6 0
-81 -66 0
-81 -75 0
-81 -76 0
-81 -77 0
-81 -78 0
6 15 16 17 18 21 30 0
-6 -15 0
-6 -16 0
-6 -17 0
-6 -18 0
-6 -21 0
-6 -30 0
-15 -6 0
-15 -16 0
-15 -17 0
-15 -18 0
-15 -21 0
-15 -30 0
-16 -6 0
-16 -15 0
-16 -17 0
-16 -18 0
-16 -21 0
-16 -30 0
-17 -6 0
-17 -15 0
-17 -16 0
-17 -18 0
-17 -21 0
-17 -30 0
-18 -6 0
-18 -15 0
-18 -16 0
-18 -17 0
-18 -21 0
-18 -30 0
-21 -6 0
-21 -15 0
-21 -16 0
-21 -17 0
-21 -18 0
-21 -30 0
-30 -6 0
-30 -15 0
-30 -16 0
-30 -17 0
-30 -18 0
-30 -21 0
7 67 76 79 80 81 82 0
-7 -67 0
-7 -76 0
-7 -79 0
-7 -80 0
-7 -81 0
-7 -82 0
-67 -7 0
-67 -76 0
-67 -79 0
-67 -80 0
-67 -81 0
-67 -82 0
-76 -7 0
-76 -67 0
-76 -79 0
-76 -80 0
-76 -81 0
-76 -82 0
-79 -7 0
-79 -67 0
-79 -76 0
-79 -80 0
-79 -81 0
-79 -82 0
-80 -7 0
-80 -67 0
-80 -76 0
-80 -79 0
-80 -81 0
-80 -82 0
-81 -7 0
-81 -67 0
-81 -76 0
-81 -79 0
-81 -80 0
-81 -82 0
-82 -7 0
-82 -67 0
-82 -76 0
-82 -79 0
-82 -80 0
-82 -81 0
7 16 19 20 21 22 31 0
-7 -16 0
-7 -19 0
-7 -20 0
-7 -21 0
-7 -22 0
-7 -31 0
-16 -7 0
-16 -19 0
-16 -20 0
-16 -21 0
-16 -22 0
-16 -31 0
-19 -7 0
-19 -16 0
-19 -20 0
-19 -21 0
-19 -22 0
-19 -31 0
-20 -7 0
-20 -16 0
-20 -19 0
-20 -21 0
-20 -22 0
-20 -31 0
-21 -7 0
-21 -16 0
-21 -19 0
-21 -20 0
-21 -22 0
-21 -31 0
-22 -7 0
-22 -16 0
-22 -19 0
-22 -20 0
-22 -21 0
-22 -31 0
-31 -7 0
-31 -16 0
-31 -19 0
-31 -20 0
-31 -21 0
-31 -22 0
8 68 77 79 80 81 83 0
-8 -68 0
-8 -77 0
-8 -79 0
-8 -80 0
-8 -81 0
-8 -83 0
-68 -8 0
-68 -77 0
-68 -79 0
-68 -80 0
-68 -81 0
-68 -83 0
-77 -8 0
-77 -68 0
-77 -79 0
-77 -80 0
-77 -81 0
-77 -83 0
-79 -8 0
-79 -68 0
-79 -77 0
-79 -80 0
-79 -81 0
-79 -83 0
-80 -8 0
-80 -68 0
-80 -77 0
-80 -79 0
-80 -81 0
-80 -83 0
-81 -8 0
-81 -68 0
-81 -77 0
-81 -79 0
-81 -80 0
-81 -83 0
-83 -8 0
-83 -68 0
-83 -77 0
-83 -79 0
-83 -80 0
-83 -81 0
8 17 19 20 21 23 32 0
-8 -17 0
-8 -19 0
-8 -20 0
-8 -21 0
-8 -23 0
-8 -32 0
-17 -8 0
-17 -19 0
-17 -20 0
-17 -21 0
-17 -23 0
-17 -32 0
-19 -8 0
-19 -17 0
-19 -20 0
-19 -21 0
-19 -23 0
-19 -32 0
-20 -8 0
-20 -17 0
-20 -19 0
-20 -21 0
-20 -23 0
-20 -32 0
-21 -8 0
-21 -17 0
-21 -19 0
-21 -20 0
-21 -23 0
-21 -32 0
-23 -8 0
-23 -17 0
-23 -19 0
-23 -20 0
-23 -21 0
-23 -32 0
-32 -8 0
-32 -17 0
-32 -19 0
-32 -20 0
-32 -21 0
-32 -23 0
9 69 78 79 80 81 84 0
-9 -69 0
-9 -78 0
-9 -79 0
-9 -80 0
-9 -81 0
-9 -84 0
-69 -9 0
-69 -78 0
-69 -79 0
-69 -80 0
-69 -81 0
-69 -84 0
-78 -9 0
-78 -69 0
-78 -79 0
-78 -80 0
-78 -81 0
-78 -84 0
-79 -9 0
-79 -69 0
-79 -78 0
-79 -80 0
-79 -81 0
-79 -84 0
-80 -9 0
-80 -69 0
-80 -78 0
-80 -79 0
-80 -81 0
-80 -84 0
-81 -9 0
-81 -69 0
-81 -78 0
-81 -79 0
-81 -80 0
-81 -84 0
-84 -9 0
-84 -69 0
-84 -78 0
-84 -79 0
-84 -80 0
-84 -81 0
9 18 19 20 21 24 33 0
-9 -18 0
-9 -19 0
-9 -20 0
-9 -21 0
-9 -24 0
-9 -33 0
-18 -9 0
-18 -19 0
-18 -20 0
-18 -21 0
-18 -24 0
-18 -33 0
-19 -9 0
-19 -18 0
-19 -20 0
-19 -21 0
-19 -24 0
-19 -33 0
-20 -9 0
-20 -18 0
-20 -19 0
-20 -21 0
-20 -24 0
-20 -33 0
-21 -9 0
-21 -18 0
-21 -19 0
-21 -20 0
-21 -24 0
-21 -33 0
-24 -9 0
-24 -18 0
-24 -19 0
-24 -20 0
-24 -21 0
-24 -33 0
-33 -9 0
-33 -18 0
-33 -19 0
-33 -20 0
-33 -21 0
-33 -24 0
10 70 73 79 82 83 84 0
-10 -70 0
-10 -73 0
-10 -79 0
-10 -82 0
-10 -83 0
-10 -84 0
-70 -10 0
-70 -73 0
-70 -79 0
-70 -82 0
-70 -83 0
-70 -84 0
-73 -10 0
-73 -70 0
-73 -79 0
-73 -82 0
-73 -83 0
-73 -84 0
-79 -10 0
-79 -70 0
-79 -73 0
-79 -82 0
-79 -83 0
-79 -84 0
-82 -10 0
-82 -70 0
-82 -73 0
-82 -79 0
-82 -83 0
-82 -84 0
-83 -10 0
-83 -70 0
-83 -73 0
-83 -79 0
-83 -82 0
-83 -84 0
-84 -10 0
-84 -70 0
-84 -73 0
-84 -79 0
-84 -82 0
-84 -83 0
10 13 19 22 23 24 34 0
-10 -13 0
-10 -19 0
-10 -22 0
-10 -23 0
-10 -24 0
-10 -34 0
-13 -10 0
-13 -19 0
-13 -22 0
-13 -23 0
-13 -24 0
-13 -34 0
-19 -10 0
-19 -13 0
-19 -22 0
-19 -23 0
-19 -24 0
-19 -34 0
-22 -10 0
-22 -13 0
-22 -19 0
-22 -23 0
-22 -24 0
-22 -34 0
-23 -10 0
-23 -13 0
-23 -19 0
-23 -22 0
-23 -24 0
-23 -34 0
-24 -10 0
-24 -13 0
-24 -19 0
-24 -22 0
-24 -23 0
-24 -34 0
-34 -10 0
-34 -13 0
-34 -19 0
-34 -22 0
-34 -23 0
-34 -24 0
11 71 74 80 82 83 84 0
-11 -71 0
-11 -74 0
-11 -80 0
-11 -82 0
-11 -83 0
-11 -84 0
-71 -11 0
-71 -74 0
-71 -80 0
-71 -82 0
-71 -83 0
-71 -84 0
-74 -11 0
-74 -71 0
-74 -80 0
-74 -82 0
-74 -83 0
-74 -84 0
-80 -11 0
-80 -71 0
-80 -74 0
-80 -82 0
-80 -83 0
-80 -84 0
-82 -11 0
-82 -71 0
-82 -74 0
-82 -80 0
-82 -83 0
-82 -84 0
-83 -11 0
-83 -71 0
-83 -74 0
-83 -80 0
-83 -82 0
-83 -84 0
-84 -11 0
-84 -71 0
-84 -74 0
-84 -80 0
-84 -82 0
-84 -83 0
11 14 20 22 23 24 35 0
-11 -14 0
-11 -20 0
-11 -22 0
-11 -23 0
-11 -24 0
-11 -35 0
-14 -11 0
-14 -20 0
-14 -22 0
-14 -23 0
-14 -24 0
-14 -35 0
-20 -11 0
-20 -14 0
-20 -22 0
-20 -23 0
-20 -24 0
-20 -35 0
-22 -11 0
-22 -14 0
-22 -20 0
-22 -23 0
-22 -24 0
-22 -35 0
-23 -11 0
-23 -14 0
-23 -20 0
-23 -22 0
-23 -24 0
-23 -35 0
-24 -11 0
-24 -14 0
-24 -20 0
-24 -22 0
-24 -23 0
-24 -35 0
-35 -11 0
-35 -14 0
-35 -20 0
-35 -22 0
-35 -23 0
-35 -24 0
12 72 75 81 82 83 84 0
-12 -72 0
-12 -75 0
-12 -81 0
-12 -82 0
-12 -83 0
-12 -84 0
-72 -12 0
-72 -75 0
-72 -81 0
-72 -82 0
-72 -83 0
-72 -84 0
-75 -12 0
-75 -72 0
-75 -81 0
-75 -82 0
-75 -83 0
-75 -84 0
-81 -12 0
-81 -72 0
-81 -75 0
-81 -82 0
-81 -83 0
-81 -84 0
-82 -12 0
-82 -72 0
-82 -75 0
-82 -81 0
-82 -83 0
-82 -84 0
-83 -12 0
-83 -72 0
-83 -75 0
-83 -81 0
-83 -82 0
-83 -84 0
-84 -12 0
-84 -72 0
-84 -75 0
-84 -81 0
-84 -82 0
-84 -83 0
12 15 21 22 23 24 36 0
-12 -15 0
-12 -21 0
-12 -22 0
-12 -23 0
-12 -24 0
-12 -36 0
-15 -12 0
-15 -21 0
-15 -22 0
-15 -23 0
-15 -24 0
-15 -36 0
-21 -12 0
-21 -15 0
-21 -22 0
-21 -23 0
-21 -24 0
-21 -36 0
-22 -12 0
-22 -15 0
-22 -21 0
-22 -23 0
-22 -24 0
-22 -36 0
-23 -12 0
-23 -15 0
-23 -21 0
-23 -22 0
-23 -24 0
-23 -36 0
-24 -12 0
-24 -15 0
-24 -21 0
-24 -22 0
-24 -23 0
-24 -36 0
-36 -12 0
-36 -15 0
-36 -21 0
-36 -22 0
-36 -23 0
-36 -24 0
13 25 26 27 28 34 37 0
-13 -25 0
-13 -26 0
-13 -27 0
-13 -28 0
-13 -34 0
-13 -37 0
-25 -13 0
-25 -26 0
-25 -27 0
-25 -28 0
-25 -34 0
-25 -37 0
-26 -13 0
-26 -25 0
-26 -27 0
-26 -28 0
-26 -34 0
-26 -37 0
-27 -13 0
-27 -25 0
-27 -26 0
-27 -28 0
-27 -34 0
-27 -37 0
-28 -13 0
-28 -25 0
-28 -26 0
-28 -27 0
-28 -34 0
-28 -37 0
-34 -13 0
-34 -25 0
-34 -26 0
-34 -27 0
-34 -28 0
-34 -37 0
-37 -13 0
-37 -25 0
-37 -26 0
-37 -27 0
-37 -28 0
-37 -34 0
14 25 26 27 29 35 38 0
-14 -25 0
-14 -26 0
-14 -27 0
-14 -29 0
-14 -35 0
-14 -38 0
-25 -14 0
-25 -26 0
-25 -27 0
-25 -29 0
-25 -35 0
-25 -38 0
-26 -14 0
-26 -25 0
-26 -27 0
-26 -29 0
-26 -35 0
-26 -38 0
-27 -14 0
-27 -25 0
-27 -26 0
-27 -29 0
-27 -35 0
-27 -38 0
-29 -14 0
-29 -25 0
-29 -26 0
-29 -27 0
-29 -35 0
-29 -38 0
-35 -14 0
-35 -25 0
-35 -26 0
-35 -27 0
-35 -29 0
-35 -38 0
-38 -14 0
-38 -25 0
-38 -26 0
-38 -27 0
-38 -29 0
-38 -35 0
15 25 26 27 30 36 39 0
-15 -25 0
-15 -26 0
-15 -27 0
-15 -30 0
-15 -36 0
-15 -39 0
-25 -15 0
-25 -26 0
-25 -27 0
-25 -30 0
-25 -36 0
-25 -39 0
-26 -15 0
-26 -25 0
-26 -27 0
-26 -30 0
-26 -36 0
-26 -39 0
-27 -15 0
-27 -25 0
-27 -26 0
-27 -30 0
-27 -36 0
-27 -39 0
-30 -15 0
-30 -25 0
-30 -26 0
-30 -27 0
-30 -36 0
-30 -39 0
-36 -15 0
-36 -25 0
-36 -26 0
-36 -27 0
-36 -30 0
-36 -39 0
-39 -15 0
-39 -25 0
-39 -26 0
-39 -27 0
-39 -30 0
-39 -36 0
16 25 28 29 30 31 40 0
-16 -25 0
-16 -28 0
-16 -29 0
-16 -30 0
-16 -31 0
-16 -40 0
-25 -16 0
-25 -28 0
-25 -29 0
-25 -30 0
-25 -31 0
-25 -40 0
-28 -16 0
-28 -25 0
-28 -29 0
-28 -30 0
-28 -31 0
-28 -40 0
-29 -16 0
-29 -25 0
-29 -28 0
-29 -30 0
-29 -31 0
-29 -40 0
-30 -16 0
-30 -25 0
-30 -28 0
-30 -29 0
-30 -31 0
-30 -40 0
-31 -16 0
-31 -25 0
-31 -28 0
-31 -29 0
-31 -30 0
-31 -40 0
-40 -16 0
-40 -25 0
-40 -28 0
-40 -29 0
-40 -30 0
-40 -31 0
17 26 28 29 30 32 41 0
-17 -26 0
-17 -28 0
-17 -29 0
-17 -30 0
-17 -32 0
-17 -41 0
-26 -17 0
-26 -28 0
-26 -29 0
-26 -30 0
-26 -32 0
-26 -41 0
-28 -17 0
-28 -26 0
-28 -29 0
-28 -30 0
-28 -32 0
-28 -41 0
-29 -17 0
-29 -26 0
-29 -28 0
-29 -30 0
-29 -32 0
-29 -41 0
-30 -17 0
-30 -26 0
-30 -28 0
-30 -29 0
-30 -32 0
-30 -41 0
-32 -17 0
-32 -26 0
-32 -28 0
-32 -29 0
-32 -30 0
-32 -41 0
-41 -17 0
-41 -26 0
-41 -28 0
-41 -29 0
-41 -30 0
-41 -32 0
18 27 28 29 30 33 42 0
-18 -27 0
-18 -28 0
-18 -29 0
-18 -30 0
-18 -33 0
-18 -42 0
-27 -18 0
-27 -28 0
-27 -29 0
-27 -30 0
-27 -33 0
-27 -42 0
-28 -18 0
-28 -27 0
-28 -29 0
-28 -30 0
-28 -33 0
-28 -42 0
-29 -18 0
-29 -27 0
-29 -28 0
-29 -30 0
-29 -33 0
-29 -42 0
-30 -18 0
-30 -27 0
-30 -28 0
-30 -29 0
-30 -33 0
-30 -42 0
-33 -18 0
-33 -27 0
-33 -28 0
-33 -29 0
-33 -30 0
-33 -42 0
-42 -18 0
-42 -27 0
-42 -28 0
-42 -29 0
-42 -30 0
-42 -33 0
19 28 31 32 33 34 43 0
-19 -28 0
-19 -31 0
-19 -32 0
-19 -33 0
-19 -34 0
-19 -43 0
-28 -19 0
-28 -31 0
-28 -32 0
-28 -33 0
-28 -34 0
-28 -43 0
-31 -19 0
-31 -28 0
-31 -32 0
-31 -33 0
-31 -34 0
-31 -43 0
-32 -19 0
-32 -28 0
-32 -31 0
-32 -33 0
-32 -34 0
-32 -43 0
-33 -19 0
-33 -28 0
-33 -31 0
-33 -32 0
-33 -34 0
-33 -43 0
-34 -19 0
-34 -28 0
-34 -31 0
-34 -32 0
-34 -33 0
-34 -43 0
-43 -19 0
-43 -28 0
-43 -31 0
-43 -32 0
-43 -33 0
-43 -34 0
20 29 31 32 33 35 44 0
-20 -29 0
-20 -31 0
-20 -32 0
-20 -33 0
-20 -35 0
-20 -44 0
-29 -20 0
-29 -31 0
-29 -32 0
-29 -33 0
-29 -35 0
-29 -44 0
-31 -20 0
-31 -29 0
-31 -32 0
-31 -33 0
-31 -35 0
-31 -44 0
-32 -20 0
-32 -29 0
-32 -31 0
-32 -33 0
-32 -35 0
-32 -44 0
-33 -20 0
-33 -29 0
-33 -31 0
-33 -32 0
-33 -35 0
-33 -44 0
-35 -20 0
-35 -29 0
-35 -31 0
-35 -32 0
-35 -33 0
-35 -44 0
-44 -20 0
-44 -29 0
-44 -31 0
-44 -32 0
-44 -33 0
-44 -35 0
21 30 31 32 33 36 45 0
-21 -30 0
-21 -31 0
-21 -32 0
-21 -33 0
-21 -36 0
-21 -45 0
-30 -21 0
-30 -31 0
-30 -32 0
-30 -33 0
-30 -36 0
-30 -45 0
-31 -21 0
-31 -30 0
-31 -32 0
-31 -33 0
-31 -36 0
-31 -45 0
-32 -21 0
-32 -30 0
-32 -31 0
-32 -33 0
-32 -36 0
-32 -45 0
-33 -21 0
-33 -30 0
-33 -31 0
-33 -32 0
-33 -36 0
-33 -45 0
-36 -21 0
-36 -30 0
-36 -31 0
-36 -32 0
-36 -33 0
-36 -45 0
-45 -21 0
-45 -30 0
-45 -31 0
-45 -32 0
-45 -33 0
-45 -36 0
22 25 31 34 35 36 46 0
-22 -25 0
-22 -31 0
-22 -34 0
-22 -35 0
-22 -36 0
-22 -46 0
-25 -22 0
-25 -31 0
-25 -34 0
-25 -35 0
-25 -36 0
-25 -46 0
-31 -22 0
-31 -25 0
-31 -34 0
-31 -35 0
-31 -36 0
-31 -46 0
-34 -22 0
-34 -25 0
-34 -31 0
-34 -35 0
-34 -36 0
-34 -46 0
-35 -22 0
-35 -25 0
-35 -31 0
-35 -34 0
-35 -36 0
-35 -46 0
-36 -22 0
-36 -25 0
-36 -31 0
-36 -34 0
-36 -35 0
-36 -46 0
-46 -22 0
-46 -25 0
-46 -31 0
-46 -34 0
-46 -35 0
-46 -36 0
23 26 32 34 35 36 47 0
-23 -26 0
-23 -32 0
-23 -34 0
-23 -35 0
-23 -36 0
-23 -47 0
-26 -23 0
-26 -32 0
-26 -34 0
-26 -35 0
-26 -36 0
-26 -47 0
-32 -23 0
-32 -26 0
-32 -34 0
-32 -35 0
-32 -36 0
-32 -47 0
-34 -23 0
-34 -26 0
-34 -32 0
-34 -35 0
-34 -36 0
-34 -47 0
-35 -23 0
-35 -26 0
-35 -32 0
-35 -34 0
-35 -36 0
-35 -47 0
-36 -23 0
-36 -26 0
-36 -32 0
-36 -34 0
-36 -35 0
-36 -47 0
-47 -23 0
-47 -26 0
-47 -32 0
-47 -34 0
-47 -35 0
-47 -36 0
24 27 33 34 35 36 48 0
-24 -27 0
-24 -33 0
-24 -34 0
-24 -35 0
-24 -36 0
-24 -48 0
-27 -24 0
-27 -33 0
-27 -34 0
-27 -35 0
-27 -36 0
-27 -48 0
-33 -24 0
-33 -27 0
-33 -34 0
-33 -35 0
-33 -36 0
-33 -48 0
-34 -24 0
-34 -27 0
-34 -33 0
-34 -35 0
-34 -36 0
-34 -48 0
-35 -24 0
-35 -27 0
-35 -33 0
-35 -34 0
-35 -36 0
-35 -48 0
-36 -24 0
-36 -27 0
-36 -33 0
-36 -34 0
-36 -35 0
-36 -48 0
-48 -24 0
-48 -27 0
-48 -33 0
-48 -34 0
-48 -35 0
-48 -36 0
25 37 38 39 40 46 49 0
-25 -37 0
-25 -38 0
-25 -39 0
-25 -40 0
-25 -46 0
-25 -49 0
-37 -25 0
-37 -38 0
-37 -39 0
-37 -40 0
-37 -46 0
-37 -49 0
-38 -25 0
-38 -37 0
-38 -39 0
-38 -40 0
-38 -46 0
-38 -49 0
-39 -25 0
-39 -37 0
-39 -38 0
-39 -40 0
-39 -46 0
-39 -49 0
-40 -25 0
-40 -37 0
-40 -38 0
-40 -39 0
-40 -46 0
-40 -49 0
-46 -25 0
-46 -37 0
-46 -38 0
-46 -39 0
-46 -40 0
-46 -49 0
-49 -25 0
-49 -37 0
-49 -38 0
-49 -39 0
-49 -40 0
-49 -46 0
26 37 38 39 41 47 50 0
-26 -37 0
-26 -38 0
-26 -39 0
-26 -41 0
-26 -47 0
-26 -50 0
-37 -26 0
-37 -38 0
-37 -39 0
-37 -41 0
-37 -47 0
-37 -50 0
-38 -26 0
-38 -37 0
-38 -39 0
-38 -41 0
-38 -47 0
-38 -50 0
-39 -26 0
-39 -37 0
-39 -38 0
-39 -41 0
-39 -47 0
-39 -50 0
-41 -26 0
-41 -37 0
-41 -38 0
-41 -39 0
-41 -47 0
-41 -50 0
-47 -26 0
-47 -37 0
-47 -38 0
-47 -39 0
-47 -41 0
-47 -50 0
-50 -26 0
-50 -37 0
-50 -38 0
-50 -39 0
-50 -41 0
-50 -47 0
27 37 38 39 42 48 51 0
-27 -37 0
-27 -38 0
-27 -39 0
-27 -42 0
-27 -48 0
-27 -51 0
-37 -27 0
-37 -38 0
-37 -39 0
-37 -42 0
-37 -48 0
-37 -51 0
-38 -27 0
-38 -37 0
-38 -39 0
-38 -42 0
-38 -48 0
-38 -51 0
-39 -27 0
-39 -37 0
-39 -38 0
-39 -42 0
-39 -48 0
-39 -51 0
-42 -27 0
-42 -37 0
-42 -38 0
-42 -39 0
-42 -48 0
-42 -51 0
-48 -27 0
-48 -37 0
-48 -38 0
-48 -39 0
-48 -42 0
-48 -51 0
-51 -27 0
-51 -37 0
-51 -38 0
-51 -39 0
-51 -42 0
-51 -48 0
28 37 40 41 42 43 52 0
-28 -37 0
-28 -40 0
-28 -41 0
-28 -42 0
-28 -43 0
-28 -52 0
-37 -28 0
-37 -40 0
-37 -41 0
-37 -42 0
-37 -43 0
-37 -52 0
-40 -28 0
-40 -37 0
-40 -41 0
-40 -42 0
-40 -43 0
-40 -52 0
-41 -28 0
-41 -37 0
-41 -40 0
-41 -42 0
-41 -43 0
-41 -52 0
-42 -28 0
-42 -37 0
-42 -40 0
-42 -41 0
-42 -43 0
-42 -52 0
-43 -28 0
-43 -37 0
-43 -40 0
-43 -41 0
-43 -42 0
-43 -52 0
-52 -28 0
-52 -37 0
-52 -40 0
-52 -41 0
-52 -42 0
-52 -43 0
29 38 40 41 42 44 53 0
-29 -38 0
-29 -40 0
-29 -41 0
-29 -42 0
-29 -44 0
-29 -53 0
-38 -29 0
-38 -40 0
-38 -41 0
-38 -42 0
-38 -44 0
-38 -53 0
-40 -29 0
-40 -38 0
-40 -41 0
-40 -42 0
-40 -44 0
-40 -53 0
-41 -29 0
-41 -38 0
-41 -40 0
-41 -42 0
-41 -44 0
-41 -53 0
-42 -29 0
-42 -38 0
-42 -40 0
-42 -41 0
-42 -44 0
-42 -53 0
-44 -29 0
-44 -38 0
-44 -40 0
-44 -41 0
-44 -42 0
-44 -53 0
-53 -29 0
-53 -38 0
-53 -40 0
-53 -41 0
-53 -42 0
-53 -44 0
30 39 40 41 42 45 54 0
-30 -39 0
-30 -40 0
-30 -41 0
-30 -42 0
-30 -45 0
-30 -54 0
-39 -30 0
-39 -40 0
-39 -41 0
-39 -42 0
-39 -45 0
-39 -54 0
-40 -30 0
-40 -39 0
-40 -41 0
-40 -42 0
-40 -45 0
-40 -54 0
-41 -30 0
-41 -39 0
-41 -40 0
-41 -42 0
-41 -45 0
-41 -54 0
-42 -30 0
-42 -39 0
-42 -40 0
-42 -41 0
-42 -45 0
-42 -54 0
-45 -30 0
-45 -39 0
-45 -40 0
-45 -41 0
-45 -42 0
-45 -54 0
-54 -30 0
-54 -39 0
-54 -40 0
-54 -41 0
-54 -42 0
-54 -45 0
31 40 43 44 45 46 55 0
-31 -40 0
-31 -43 0
-31 -44 0
-31 -45 0
-31 -46 0
-31 -55 0
-40 -31 0
-40 -43 0
-40 -44 0
-40 -45 0
-40 -46 0
-40 -55 0
-43 -31 0
-43 -40 0
-43 -44 0
-43 -45 0
-43 -46 0
-43 -55 0
-44 -31 0
-44 -40 0
-44 -43 0
-44 -45 0
-44 -46 0
-44 -55 0
-45 -31 0
-45 -40 0
-45 -43 0
-45 -44 0
-45 -46 0
-45 -55 0
-46 -31 0
-46 -40 0
-46 -43 0
-46 -44 0
-46 -45 0
-46 -55 0
-55 -31 0
-55 -40 0
-55 -43 0
-55 -44 0
-55 -45 0
-55 -46 0
32 41 43 44 45 47 56 0
-32 -41 0
-32 -43 0
-32 -44 0
-32 -45 0
-32 -47 0
-32 -56 0
-41 -32 0
-41 -43 0
-41 -44 0
-41 -45 0
-41 -47 0
-41 -56 0
-43 -32 0
-43 -41 0
-43 -44 0
-43 -45 0
-43 -47 0
-43 -56 0
-44 -32 0
-44 -41 0
-44 -43 0
-44 -45 0
-44 -47 0
-44 -56 0
-45 -32 0
-45 -41 0
-45 -43 0
-45 -44 0
-45 -47 0
-45 -56 0
-47 -32 0
-47 -41 0
-47 -43 0
-47 -44 0
-47 -45 0
-47 -56 0
-56 -32 0
-56 -41 0
-56 -43 0
-56 -44 0
-56 -45 0
-56 -47 0
33 42 43 44 45 48 57 0
-33 -42 0
-33 -43 0
-33 -44 0
-33 -45 0
-33 -48 0
-33 -57 0
-42 -33 0
-42 -43 0
-42 -44 0
-42 -45 0
-42 -48 0
-42 -57 0
-43 -33 0
-43 -42 0
-43 -44 0
-43 -45 0
-43 -48 0
-43 -57 0
-44 -33 0
-44 -42 0
-44 -43 0
-44 -45 0
-44 -48 0
-44 -57 0
-45 -33 0
-45 -42 0
-45 -43 0
-45 -44 0
-45 -48 0
-45 -57 0
-48 -33 0
-48 -42 0
-48 -43 0
-48 -44 0
-48 -45 0
-48 -57 0
-57 -33 0
-57 -42 0
-57 -43 0
-57 -44 0
-57 -45 0
-57 -48 0
34 37 43 46 47 48 58 0
-34 -37 0
-34 -43 0
-34 -46 0
-34 -47 0
-34 -48 0
-34 -58 0
-37 -34 0
-37 -43 0
-37 -46 0
-37 -47 0
-37 -48 0
-37 -58 0
-43 -34 0
-43 -37 0
-43 -46 0
-43 -47 0
-43 -48 0
-43 -58 0
-46 -34 0
-46 -37 0
-46 -43 0
-46 -47 0
-46 -48 0
-46 -58 0
-47 -34 0
-47 -37 0
-47 -43 0
-47 -46 0
-47 -48 0
-47 -58 0
-48 -34 0
-48 -37 0
-48 -43 0
-48 -46 0
-48 -47 0
-48 -58 0
-58 -34 0
-58 -37 0
-58 -43 0
-58 -46 0
-58 -47 0
-58 -48 0
35 38 44 46 47 48 59 0
-35 -38 0
-35 -44 0
-35 -46 0
-35 -47 0
-35 -48 0
-35 -59 0
-38 -35 0
-38 -44 0
-38 -46 0
-38 -47 0
-38 -48 0
-38 -59 0
-44 -35 0
-44 -38 0
-44 -46 0
-44 -47 0
-44 -48 0
-44 -59 0
-46 -35 0
-46 -38 0
-46 -44 0
-46 -47 0
-46 -48 0
-46 -59 0
-47 -35 0
-47 -38 0
-47 -44 0
-47 -46 0
-47 -48 0
-47 -59 0
-48 -35 0
-48 -38 0
-48 -44 0
-48 -46 0
-48 -47 0
-48 -59 0
-59 -35 0
-59 -38 0
-59 -44 0
-59 -46 0
-59 -47 0
-59 -48 0
36 39 45 46 47 48 60 0
-36 -39 0
-36 -45 0
-36 -46 0
-36 -47 0
-36 -48 0
-36 -60 0
-39 -36 0
-39 -45 0
-39 -46 0
-39 -47 0
-39 -48 0
-39 -60 0
-45 -36 0
-45 -39 0
-45 -46 0
-45 -47 0
-45 -48 0
-45 -60 0
-46 -36 0
-46 -39 0
-46 -45 0
-46 -47 0
-46 -48 0
-46 -60 0
-47 -36 0
-47 -39 0
-47 -45 0
-47 -46 0
-47 -48 0
-47 -60 0
-48 -36 0
-48 -39 0
-48 -45 0
-48 -46 0
-48 -47 0
-48 -60 0
-60 -36 0
-60 -39 0
-60 -45 0
-60 -46 0
-60 -47 0
-60 -48 0
37 49 50 51 52 58 61 0
-37 -49 0
-37 -50 0
-37 -51 0
-37 -52 0
-37 -58 0
-37 -61 0
-49 -37 0
-49 -50 0
-49 -51 0
-49 -52 0
-49 -58 0
-49 -61 0
-50 -37 0
-50 -49 0
-50 -51 0
-50 -52 0
-50 -58 0
-50 -61 0
-51 -37 0
-51 -49 0
-51 -50 0
-51 -52 0
-51 -58 0
-51 -61 0
-52 -37 0
-52 -49 0
-52 -50 0
-52 -51 0
-52 -58 0
-52 -61 0
-58 -37 0
-58 -49 0
-58 -50 0
-58 -51 0
-58 -52 0
-58 -61 0
-61 -37 0
-61 -49 0
-61 -50 0
-61 -51 0
-61 -52 0
-61 -58 0
38 49 50 51 53 59 62 0
-38 -49 0
-38 -50 0
-38 -51 0
-38 -53 0
-38 -59 0
-38 -62 0
-49 -38 0
-49 -50 0
-49 -51 0
-49 -53 0
-49 -59 0
-49 -62 0
-50 -38 0
-50 -49 0
-50 -51 0
-50 -53 0
-50 -59 0
-50 -62 0
-51 -38 0
-51 -49 0
-51 -50 0
-51 -53 0
-51 -59 0
-51 -62 0
-53 -38 0
-53 -49 0
-53 -50 0
-53 -51 0
-53 -59 0
-53 -62 0
-59 -38 0
-59 -49 0
-59 -50 0
-59 -51 0
-59 -53 0
-59 -62 0
-62 -38 0
-62 -49 0
-62 -50 0
-62 -51 0
-62 -53 0
-62 -59 0
39 49 50 51 54 60 63 0
-39 -49 0
-39 -50 0
-39 -51 0
-39 -54 0
-39 -60 0
-39 -63 0
-49 -39 0
-49 -50 0
-49 -51 0
-49 -54 0
-49 -60 0
-49 -63 0
-50 -39 0
-50 -49 0
-50 -51 0
-50 -54 0
-50 -60 0
-50 -63 0
-51 -39 0
-51 -49 0
-51 -50 0
-51 -54 0
-51 -60 0
-51 -63 0
-54 -39 0
-54 -49 0
-54 -50 0
-54 -51 0
-54 -60 0
-54 -63 0
-60 -39 0
-60 -49 0
-60 -50 0
-60 -51 0
-60 -54 0
-60 -63 0
-63 -39 0
-63 -49 0
-63 -50 0
-63 -51 0
-63 -54 0
-63 -60 0
40 49 52 53 54 55 64 0
-40 -49 0
-40 -52 0
-40 -53 0
-40 -54 0
-40 -55 0
-40 -64 0
-49 -40 0
-49 -52 0
-49 -53 0
-49 -54 0
-49 -55 0
-49 -64 0
-52 -40 0
-52 -49 0
-52 -53 0
-52 -54 0
-52 -55 0
-52 -64 0
-53 -40 0
-53 -49 0
-53 -52 0
-53 -54 0
-53 -55 0
-53 -64 0
-54 -40 0
-54 -49 0
-54 -52 0
-54 -53 0
-54 -55 0
-54 -64 0
-55 -40 0
-55 -49 0
-55 -52 0
-55 -53 0
-55 -54 0
-55 -64 0
-64 -40 0
-64 -49 0
-64 -52 0
-64 -53 0
-64 -54 0
-64 -55 0
41 50 52 53 54 56 65 0
-41 -50 0
-41 -52 0
-41 -53 0
-41 -54 0
-41 -56 0
-41 -65 0
-50 -41 0
-50 -52 0
-50 -53 0
-50 -54 0
-50 -56 0
-50 -65 0
-52 -41 0
-52 -50 0
-52 -53 0
-52 -54 0
-52 -56 0
-52 -65 0
-53 -41 0
-53 -50 0
-53 -52 0
-53 -54 0
-53 -56 0
-53 -65 0
-54 -41 0
-54 -50 0
-54 -52 0
-54 -53 0
-54 -56 0
-54 -65 0
-56 -41 0
-56 -50 0
-56 -52 0
-56 -53 0
-56 -54 0
-56 -65 0
-65 -41 0
-65 -50 0
-65 -52 0
-65 -53 0
-65 -54 0
-65 -56 0
42 51 52 53 54 57 66 0
-42 -51 0
-42 -52 0
-42 -53 0
-42 -54 0
-42 -57 0
-42 -66 0
-51 -42 0
-51 -52 0
-51 -53 0
-51 -54 0
-51 -57 0
-51 -66 0
-52 -42 0
-52 -51 0
-52 -53 0
-52 -54 0
-52 -57 0
-52 -66 0
-53 -42 0
-53 -51 0
-53 -52 0
-53 -54 0
-53 -57 0
-53 -66 0
-54 -42 0
-54 -51 0
-54 -52 0
-54 -53 0
-54 -57 0
-54 -66 0
-57 -42 0
-57 -51 0
-57 -52 0
-57 -53 0
-57 -54 0
-57 -66 0
-66 -42 0
-66 -51 0
-66 -52 0
-66 -53 0
-66 -54 0
-66 -57 0
43 52 55 56 57 58 67 0
-43 -52 0
-43 -55 0
-43 -56 0
-43 -57 0
-43 -58 0
-43 -67 0
-52 -43 0
-52 -55 0
-52 -56 0
-52 -57 0
-52 -58 0
-52 -67 0
-55 -43 0
-55 -52 0
-55 -56 0
-55 -57 0
-55 -58 0
-55 -67 0
-56 -43 0
-56 -52 0
-56 -55 0
-56 -57 0
-56 -58 0
-56 -67 0
-57 -43 0
-57 -52 0
-57 -55 0
-57 -56 0
-57 -58 0
-57 -67 0
-58 -43 0
-58 -52 0
-58 -55 0
-58 -56 0
-58 -57 0
-58 -67 0
-67 -43 0
-67 -52 0
-67 -55 0
-67 -56 0
-67 -57 0
-67 -58 0
44 53 55 56 57 59 68 0
-44 -53 0
-44 -55 0
-44 -56 0
-44 -57 0
-44 -59 0
-44 -68 0
-53 -44 0
-53 -55 0
-53 -56 0
-53 -57 0
-53 -59 0
-53 -68 0
-55 -44 0
-55 -53 0
-55 -56 0
-55 -57 0
-55 -59 0
-55 -68 0
-56 -44 0
-56 -53 0
-56 -55 0
-56 -57 0
-56 -59 0
-56 -68 0
-57 -44 0
-57 -53 0
-57 -55 0
-57 -56 0
-57 -59 0
-57 -68 0
-59 -44 0
-59 -53 0
-59 -55 0
-59 -56 0
-59 -57 0
-59 -68 0
-68 -44 0
-68 -53 0
-68 -55 0
-68 -56 0
-68 -57 0
-68 -59 0
45 54 55 56 57 60 69 0
-45 -54 0
-45 -55 0
-45 -56 0
-45 -57 0
-45 -60 0
-45 -69 0
-54 -45 0
-54 -55 0
-54 -56 0
-54 -57 0
-54 -60 0
-54 -69 0
-55 -45 0
-55 -54 0
-55 -56 0
-55 -57 0
-55 -60 0
-55 -69 0
-56 -45 0
-56 -54 0
-56 -55 0
-56 -57 0
-56 -60 0
-56 -69 0
-57 -45 0
-57 -54 0
-57 -55 0
-57 -56 0
-57 -60 0
-57 -69 0
-60 -45 0
-60 -54 0
-60 -55 0
-60 -56 0
-60 -57 0
-60 -69 0
-69 -45 0
-69 -54 0
-69 -55 0
-69 -56 0
-69 -57 0
-69 -60 0
46 49 55 58 59 60 70 0
-46 -49 0
-46 -55 0
-46 -58 0
-46 -59 0
-46 -60 0
-46 -70 0
-49 -46 0
-49 -55 0
-49 -58 0
-49 -59 0
-49 -60 0
-49 -70 0
-55 -46 0
-55 -49 0
-55 -58 0
-55 -59 0
-55 -60 0
-55 -70 0
-58 -46 0
-58 -49 0
-58 -55 0
-58 -59 0
-58 -60 0
-58 -70 0
-59 -46 0
-59 -49 0
-59 -55 0
-59 -58 0
-59 -60 0
-59 -70 0
-60 -46 0
-60 -49 0
-60 -55 0
-60 -58 0
-60 -59 0
-60 -70 0
-70 -46 0
-70 -49 0
-70 -55 0
-70 -58 0
-70 -59 0
-70 -60 0
47 50 56 58 59 60 71 0
-47 -50 0
-47 -56 0
-47 -58 0
-47 -59 0
-47 -60 0
-47 -71 0
-50 -47 0
-50 -56 0
-50 -58 0
-50 -59 0
-50 -60 0
-50 -71 0
-56 -47 0
-56 -50 0
-56 -58 0
-56 -59 0
-56 -60 0
-56 -71 0
-58 -47 0
-58 -50 0
-58 -56 0
-58 -59 0
-58 -60 0
-58 -71 0
-59 -47 0
-59 -50 0
-59 -56 0
-59 -58 0
-59 -60 0
-59 -71 0
-60 -47 0
-60 -50 0
-60 -56 0
-60 -58 0
-60 -59 0
-60 -71 0
-71 -47 0
-71 -50 0
-71 -56 0
-71 -58 0
-71 -59 0
-71 -60 0
48 51 57 58 59 60 72 0
-48 -51 0
-48 -57 0
-48 -58 0
-48 -59 0
-48 -60 0
-48 -72 0
-51 -48 0
-51 -57 0
-51 -58 0
-51 -59 0
-51 -60 0
-51 -72 0
-57 -48 0
-57 -51 0
-57 -58 0
-57 -59 0
-57 -60 0
-57 -72 0
-58 -48 0
-58 -51 0
-58 -57 0
-58 -59 0
-58 -60 0
-58 -72 0
-59 -48 0
-59 -51 0
-59 -57 0
-59 -58 0
-59 -60 0
-59 -72 0
-60 -48 0
-60 -51 0
-60 -57 0
-60 -58 0
-60 -59 0
-60 -72 0
-72 -48 0
-72 -51 0
-72 -57 0
-72 -58 0
-72 -59 0
-72 -60 0
49 61 62 63 64 70 73 0
-49 -61 0
-49 -62 0
-49 -63 0
-49 -64 0
-49 -70 0
-49 -73 0
-61 -49 0
-61 -62 0
-61 -63 0
-61 -64 0
-61 -70 0
-61 -73 0
-62 -49 0
-62 -61 0
-62 -63 0
-62 -64 0
-62 -70 0
-62 -73 0
-63 -49 0
-63 -61 0
-63 -62 0
-63 -64 0
-63 -70 0
-63 -73 0
-64 -49 0
-64 -61 0
-64 -62 0
-64 -63 0
-64 -70 0
-64 -73 0
-70 -49 0
-70 -61 0
-70 -62 0
-70 -63 0
-70 -64 0
-70 -73 0
-73 -49 0
-73 -61 0
-73 -62 0
-73 -63 0
-73 -64 0
-73 -70 0
50 61 62 63 65 71 74 0
-50 -61 0
-50 -62 0
-50 -63 0
-50 -65 0
-50 -71 0
-50 -74 0
-61 -50 0
-61 -62 0
-61 -63 0
-61 -65 0
-61 -71 0
-61 -74 0
-62 -50 0
-62 -61 0
-62 -63 0
-62 -65 0
-62 -71 0
-62 -74 0
-63 -50 0
-63 -61 0
-63 -62 0
-63 -65 0
-63 -71 0
-63 -74 0
-65 -50 0
-65 -61 0
-65 -62 0
-65 -63 0
-65 -71 0
-65 -74 0
-71 -50 0
-71 -61 0
-71 -62 0
-71 -63 0
-71 -65 0
-71 -74 0
-74 -50 0
-74 -61 0
-74 -62 0
-74 -63 0
-74 -65 0
-74 -71 0
51 61 62 63 66 72 75 0
-51 -61 0
-51 -62 0
-51 -63 0
-51 -66 0
-51 -72 0
-51 -75 0
-61 -51 0
-61 -62 0
-61 -63 0
-61 -66 0
-61 -72 0
-61 -75 0
-62 -51 0
-62 -61 0
-62 -63 0
-62 -66 0
-62 -72 0
-62 -75 0
-63 -51 0
-63 -61 0
-63 -62 0
-63 -66 0
-63 -72 0
-63 -75 0
-66 -51 0
-66 -61 0
-66 -62 0
-66 -63 0
-66 -72 0
-66 -75 0
-72 -51 0
-72 -61 0
-72 -62 0
-72 -63 0
-72 -66 0
-72 -75 0
-75 -51 0
-75 -61 0
-75 -62 0
-75 -63 0
-75 -66 0
-75 -72 0
52 61 64 65 66 67 76 0
-52 -61 0
-52 -64 0
-52 -65 0
-52 -66 0
-52 -67 0
-52 -76 0
-61 -52 0
-61 -64 0
-61 -65 0
-61 -66 0
-61 -67 0
-61 -76 0
-64 -52 0
-64 -61 0
-64 -65 0
-64 -66 0
-64 -67 0
-64 -76 0
-65 -52 0
-65 -61 0
-65 -64 0
-65 -66 0
-65 -67 0
-65 -76 0
-66 -52 0
-66 -61 0
-66 -64 0
-66 -65 0
-66 -67 0
-66 -76 0
-67 -52 0
-67 -61 0
-67 -64 0
-67 -65 0
-67 -66 0
-67 -76 0
-76 -52 0
-76 -61 0
-76 -64 0
-76 -65 0
-76 -66 0
-76 -67 0
53 62 64 65 66 68 77 0
-53 -62 0
-53 -64 0
-53 -65 0
-53 -66 0
-53 -68 0
-53 -77 0
-62 -53 0
-62 -64 0
-62 -65 0
-62 -66 0
-62 -68 0
-62 -77 0
-64 -53 0
-64 -62 0
-64 -65 0
-64 -66 0
-64 -68 0
-64 -77 0
-65 -53 0
-65 -62 0
-65 -64 0
-65 -66 0
-65 -68 0
-65 -77 0
-66 -53 0
-66 -62 0
-66 -64 0
-66 -65 0
-66 -68 0
-66 -77 0
-68 -53 0
-68 -62 0
-68 -64 0
-68 -65 0
-68 -66 0
-68 -77 0
-77 -53 0
-77 -62 0
-77 -64 0
-77 -65 0
-77 -66 0
-77 -68 0
54 63 64 65 66 69 78 0
-54 -63 0
-54 -64 0
-54 -65 0
-54 -66 0
-54 -69 0
-54 -78 0
-63 -54 0
-63 -64 0
-63 -65 0
-63 -66 0
-63 -69 0
-63 -78 0
-64 -54 0
-64 -63 0
-64 -65 0
-64 -66 0
-64 -69 0
-64 -78 0
-65 -54 0
-65 -63 0
-65 -64 0
-65 -66 0
-65 -69 0
-65 -78 0
-66 -54 0
-66 -63 0
-66 -64 0
-66 -65 0
-66 -69 0
-66 -78 0
-69 -54 0
-69 -63 0
-69 -64 0
-69 -65 0
-69 -66 0
-69 -78 0
-78 -54 0
-78 -63 0
-78 -64 0
-78 -65 0
-78 -66 0
-78 -69 0
55 64 67 68 69 70 79 0
-55 -64 0
-55 -67 0
-55 -68 0
-55 -69 0
-55 -70 0
-55 -79 0
-64 -55 0
-64 -67 0
-64 -68 0
-64 -69 0
-64 -70 0
-64 -79 0
-67 -55 0
-67 -64 0
-67 -68 0
-67 -69 0
-67 -70 0
-67 -79 0
-68 -55 0
-68 -64 0
-68 -67 0
-68 -69 0
-68 -70 0
-68 -79 0
-69 -55 0
-69 -64 0
-69 -67 0
-69 -68 0
-69 -70 0
-69 -79 0
-70 -55 0
-70 -64 0
-70 -67 0
-70 -68 0
-70 -69 0
-70 -79 0
-79 -55 0
-79 -64 0
-79 -67 0
-79 -68 0
-79 -69 0
-79 -70 0
56 65 67 68 69 71 80 0
-56 -65 0
-56 -67 0
-56 -68 0
-56 -69 0
-56 -71 0
-56 -80 0
-65 -56 0
-65 -67 0
-65 -68 0
-65 -69 0
-65 -71 0
-65 -80 0
-67 -56 0
-67 -65 0
-67 -68 0
-67 -69 0
-67 -71 0
-67 -80 0
-68 -56 0
-68 -65 0
-68 -67 0
-68 -69 0
-68 -71 0
-68 -80 0
-69 -56 0
-69 -65 0
-69 -67 0
-69 -68 0
-69 -71 0
-69 -80 0
-71 -56 0
-71 -65 0
-71 -67 0
-71 -68 0
-71 -69 0
-71 -80 0
-80 -56 0
-80 -65 0
-80 -67 0
-80 -68 0
-80 -69 0
-80 -71 0
57 66 67 68 69 72 81 0
-57 -66 0
-57 -67 0
-57 -68 0
-57 -69 0
-57 -72 0
-57 -81 0
-66 -57 0
-66 -67 0
-66 -68 0
-66 -69 0
-66 -72 0
-66 -81 0
-67 -57 0
-67 -66 0
-67 -68 0
-67 -69 0
-67 -72 0
-67 -81 0
-68 -57 0
-68 -66 0
-68 -67 0
-68 -69 0
-68 -72 0
-68 -81 0
-69 -57 0
-69 -66 0
-69 -67 0
-69 -68 0
-69 -72 0
-69 -81 0
-72 -57 0
-72 -66 0
-72 -67 0
-72 -68 0
-72 -69 0
-72 -81 0
-81 -57 0
-81 -66 0
-81 -67 0
-81 -68 0
-81 -69 0
-81 -72 0
58 61 67 70 71 72 82 0
-58 -61 0
-58 -67 0
-58 -70 0
-58 -71 0
-58 -72 0
-58 -82 0
-61 -58 0
-61 -67 0
-61 -70 0
-61 -71 0
-61 -72 0
-61 -82 0
-67 -58 0
-67 -61 0
-67 -70 0
-67 -71 0
-67 -72 0
-67 -82 0
-70 -58 0
-70 -61 0
-70 -67 0
-70 -71 0
-70 -72 0
-70 -82 0
-71 -58 0
-71 -61 0
-71 -67 0
-71 -70 0
-71 -72 0
-71 -82 0
-72 -58 0
-72 -61 0
-72 -67 0
-72 -70 0
-72 -71 0
-72 -82 0
-82 -58 0
-82 -61 0
-82 -67 0
-82 -70 0
-82 -71 0
-82 -72 0
59 62 68 70 71 72 83 0
-59 -62 0
-59 -68 0
-59 -70 0
-59 -71 0
-59 -72 0
-59 -83 0
-62 -59 0
-62 -68 0
-62 -70 0
-62 -71 0
-62 -72 0
-62 -83 0
-68 -59 0
-68 -62 0
-68 -70 0
-68 -71 0
-68 -72 0
-68 -83 0
-70 -59 0
-70 -62 0
-70 -68 0
-70 -71 0
-70 -72 0
-70 -83 0
-71 -59 0
-71 -62 0
-71 -68 0
-71 -70 0
-71 -72 0
-71 -83 0
-72 -59 0
-72 -62 0
-72 -68 0
-72 -70 0
-72 -71 0
-72 -83 0
-83 -59 0
-83 -62 0
-83 -68 0
-83 -70 0
-83 -71 0
-83 -72 0
60 63 69 70 71 72 84 0
-60 -63 0
-60 -69 0
-60 -70 0
-60 -71 0
-60 -72 0
-60 -84 0
-63 -60 0
-63 -69 0
-63 -70 0
-63 -71 0
-63 -72 0
-63 -84 0
-69 -60 0
-69 -63 0
-69 -70 0
-69 -71 0
-69 -72 0
-69 -84 0
-70 -60 0
-70 -63 0
-70 -69 0
-70 -71 0
-70 -72 0
-70 -84 0
-71 -60 0
-71 -63 0
-71 -69 0
-71 -70 0
-71 -72 0
-71 -84 0
-72 -60 0
-72 -63 0
-72 -69 0
-72 -70 0
-72 -71 0
-72 -84 0
-84 -60 0
-84 -63 0
-84 -69 0
-84 -70 0
-84 -71 0
-84 -72 0